(declare-const BAV1 Bool)
(declare-const GEN3 String)
(declare-const GEN2 String)
(declare-const GEN1 String)
(declare-fun x () String)
(declare-fun y () String)
(declare-fun z () String)
(assert (not (= (str.contains y (str.replace GEN1 (str.replace (str.++ x z) x GEN2) z)) (str.contains y GEN3))))
(assert (= BAV1 (= (str.contains y (str.replace GEN1 (str.replace (str.++ x z) x GEN2) z)) (str.contains y GEN3))))
(check-sat)
(get-model)